p cnf 491 1446
a 8 10 12 14 0
d 1 8 0
d 2 10 0
d 4 12 0
d 6 14 0
d 3 8 10 0
d 5 8 10 12 0
d 7 8 10 12 14 0
d 9 8 10 12 14 0
d 11 8 10 12 14 0
d 13 8 10 12 14 0
d 15 8 10 12 14 0
d 16 8 0
d 17 8 10 0
d 18 8 10 12 0
d 19 8 10 12 14 0
d 20 8 10 12 14 0
d 21 8 10 12 14 0
d 22 8 10 12 14 0
d 23 8 10 12 14 0
d 24 8 10 12 14 0
d 25 10 0
d 26 8 10 0
d 27 8 10 12 0
d 28 8 10 12 14 0
d 29 8 10 12 14 0
d 30 8 10 12 14 0
d 31 8 10 12 14 0
d 32 8 10 12 14 0
d 33 8 10 12 14 0
d 34 12 0
d 35 8 10 12 0
d 36 8 10 12 14 0
d 37 8 10 12 14 0
d 38 8 10 12 14 0
d 39 8 10 12 14 0
d 40 8 10 12 14 0
d 41 8 10 12 14 0
d 42 14 0
d 43 8 10 12 14 0
d 44 8 10 12 14 0
d 45 8 10 12 14 0
d 46 8 10 12 14 0
d 47 8 10 12 14 0
d 48 8 10 12 14 0
d 49 8 10 12 14 0
d 50 8 10 12 14 0
d 51 8 10 12 14 0
d 52 8 10 12 14 0
d 53 8 10 12 14 0
d 54 8 10 12 14 0
d 55 8 10 12 0
d 56 8 10 12 14 0
d 57 8 10 12 14 0
d 58 8 10 12 14 0
d 59 8 10 12 14 0
d 60 8 10 12 14 0
d 61 8 10 12 14 0
d 62 8 10 12 14 0
d 63 8 10 12 14 0
d 64 8 10 12 14 0
d 65 8 10 12 14 0
d 66 8 10 12 14 0
d 67 8 10 12 14 0
d 68 8 10 0
d 69 8 10 12 0
d 70 8 10 12 14 0
d 71 8 0
d 72 8 10 12 14 0
d 73 8 10 12 14 0
d 74 8 10 12 14 0
d 75 8 10 12 14 0
d 76 8 10 12 14 0
d 77 8 10 12 14 0
d 78 8 10 12 14 0
d 79 8 10 12 14 0
d 80 8 10 12 14 0
d 81 8 10 12 14 0
d 82 8 10 12 14 0
d 83 8 10 12 0
d 84 8 10 12 14 0
d 85 8 10 12 14 0
d 86 8 10 12 14 0
d 87 8 10 12 14 0
d 88 8 10 12 14 0
d 89 8 10 12 14 0
d 90 8 10 12 14 0
d 91 8 10 12 14 0
d 92 8 10 12 14 0
d 93 8 10 12 14 0
d 94 8 10 12 14 0
d 95 8 10 12 14 0
d 96 8 10 12 14 0
d 97 8 10 12 14 0
d 98 8 10 12 14 0
d 99 8 10 12 14 0
d 100 8 10 12 14 0
d 101 8 10 12 14 0
d 102 8 10 12 14 0
d 103 8 10 12 14 0
d 104 8 10 12 14 0
d 105 8 10 12 14 0
d 106 8 10 12 14 0
d 107 8 10 12 14 0
d 108 8 10 12 14 0
d 109 8 10 12 14 0
d 110 8 10 12 14 0
d 111 10 0
d 112 8 10 12 14 0
d 113 8 10 12 14 0
d 114 8 10 12 14 0
d 115 8 10 12 14 0
d 116 8 10 12 14 0
d 117 8 10 12 14 0
d 118 8 10 12 14 0
d 119 8 10 12 14 0
d 120 8 10 12 14 0
d 121 8 10 12 14 0
d 122 8 10 12 14 0
d 123 8 10 12 14 0
d 124 8 10 12 14 0
d 125 8 10 12 14 0
d 126 8 10 12 14 0
d 127 8 10 12 14 0
d 128 8 10 12 14 0
d 129 8 10 12 14 0
d 130 8 10 12 14 0
d 131 8 10 12 14 0
d 132 8 10 12 14 0
d 133 8 10 12 14 0
d 134 8 10 12 14 0
d 135 8 10 12 0
d 136 8 10 12 14 0
d 137 8 10 12 14 0
d 138 8 10 12 14 0
d 139 8 10 12 14 0
d 140 8 10 12 14 0
d 141 8 10 12 14 0
d 142 8 10 12 14 0
d 143 8 10 12 14 0
d 144 8 10 12 14 0
d 145 8 10 12 14 0
d 146 8 10 12 14 0
d 147 8 10 12 14 0
d 148 8 10 12 14 0
d 149 8 10 12 14 0
d 150 8 10 12 14 0
d 151 8 10 12 14 0
d 152 8 10 12 14 0
d 153 8 10 12 14 0
d 154 8 10 12 14 0
d 155 8 10 12 14 0
d 156 8 10 12 14 0
d 157 8 10 12 14 0
d 158 8 10 12 14 0
d 159 8 10 12 14 0
d 160 8 10 12 14 0
d 161 8 10 12 14 0
d 162 8 10 12 14 0
d 163 8 10 12 14 0
d 164 8 10 12 14 0
d 165 8 10 12 14 0
d 166 8 10 12 14 0
d 167 8 10 12 14 0
d 168 8 10 12 14 0
d 169 12 0
d 170 8 10 12 14 0
d 171 8 10 12 14 0
d 172 8 10 12 14 0
d 173 8 10 12 14 0
d 174 8 10 12 14 0
d 175 8 10 12 14 0
d 176 8 10 12 14 0
d 177 8 10 12 14 0
d 178 8 10 12 14 0
d 179 8 10 12 14 0
d 180 8 10 12 14 0
d 181 8 10 12 14 0
d 182 8 10 12 14 0
d 183 8 10 12 14 0
d 184 8 10 12 14 0
d 185 8 10 12 14 0
d 186 8 10 12 14 0
d 187 8 10 12 14 0
d 188 8 10 12 14 0
d 189 8 10 12 14 0
d 190 8 10 12 14 0
d 191 8 10 12 14 0
d 192 8 10 12 14 0
d 193 8 10 12 14 0
d 194 8 10 12 14 0
d 195 8 10 12 14 0
d 196 8 10 12 14 0
d 197 8 10 12 14 0
d 198 8 10 12 14 0
d 199 8 10 12 14 0
d 200 8 10 12 14 0
d 201 8 10 12 14 0
d 202 8 10 12 14 0
d 203 8 10 12 14 0
d 204 8 10 12 14 0
d 205 8 10 12 14 0
d 206 8 10 12 14 0
d 207 8 10 12 14 0
d 208 8 10 12 14 0
d 209 8 10 12 14 0
d 210 8 10 12 14 0
d 211 8 10 12 14 0
d 212 8 10 12 14 0
d 213 8 10 12 14 0
d 214 8 10 12 14 0
d 215 8 10 12 14 0
d 216 8 10 12 14 0
d 217 8 10 12 14 0
d 218 8 10 12 14 0
d 219 8 10 12 14 0
d 220 8 10 12 14 0
d 221 8 10 12 14 0
d 222 8 10 12 14 0
d 223 8 10 12 14 0
d 224 8 10 12 14 0
d 225 8 10 12 14 0
d 226 8 10 12 14 0
d 227 8 10 12 14 0
d 228 8 10 12 14 0
d 229 8 10 12 14 0
d 230 8 10 12 14 0
d 231 8 10 12 14 0
d 232 8 10 12 14 0
d 233 8 10 12 14 0
d 234 8 10 12 14 0
d 235 8 10 12 14 0
d 236 8 10 12 14 0
d 237 8 10 12 14 0
d 238 8 10 12 14 0
d 239 8 10 12 14 0
d 240 8 10 12 14 0
d 241 8 10 12 14 0
d 242 8 10 12 14 0
d 243 8 10 12 14 0
d 244 8 10 12 14 0
d 245 8 10 12 14 0
d 246 8 10 12 14 0
d 247 8 10 12 14 0
d 248 8 10 12 14 0
d 249 8 10 12 14 0
d 250 8 10 12 14 0
d 251 8 10 12 14 0
d 252 8 10 12 14 0
d 253 8 10 12 14 0
d 254 8 10 12 14 0
d 255 8 10 12 14 0
d 256 8 10 12 14 0
d 257 8 10 12 14 0
d 258 8 10 12 14 0
d 259 8 10 12 14 0
d 260 8 10 12 14 0
d 261 8 10 12 14 0
d 262 8 10 12 14 0
d 263 8 10 12 14 0
d 264 8 10 12 14 0
d 265 8 10 12 14 0
d 266 8 10 12 14 0
d 267 8 10 12 14 0
d 268 8 10 12 14 0
d 269 8 10 12 14 0
d 270 8 10 12 14 0
d 271 8 10 12 14 0
d 272 8 10 12 14 0
d 273 8 10 12 14 0
d 274 8 10 12 14 0
d 275 8 10 12 14 0
d 276 8 10 12 14 0
d 277 8 10 12 14 0
d 278 8 10 12 14 0
d 279 8 10 12 14 0
d 280 8 10 12 14 0
d 281 8 10 12 14 0
d 282 8 10 12 14 0
d 283 8 10 12 14 0
d 284 8 10 12 14 0
d 285 8 10 12 14 0
d 286 8 10 12 14 0
d 287 8 10 12 14 0
d 288 8 10 12 14 0
d 289 8 10 12 14 0
d 290 8 10 12 14 0
d 291 8 10 12 14 0
d 292 8 10 12 14 0
d 293 8 10 12 14 0
d 294 8 10 12 14 0
d 295 8 10 12 14 0
d 296 8 10 12 14 0
d 297 8 10 12 14 0
d 298 8 10 12 14 0
d 299 8 10 12 14 0
d 300 14 0
d 301 8 10 12 14 0
d 302 8 10 12 14 0
d 303 8 10 12 14 0
d 304 8 10 12 14 0
d 305 8 10 12 14 0
d 306 8 10 12 14 0
d 307 8 10 12 14 0
d 308 8 10 12 14 0
d 309 8 10 12 14 0
d 310 8 10 12 14 0
d 311 8 10 12 14 0
d 312 8 10 12 14 0
d 313 8 10 12 14 0
d 314 8 10 12 14 0
d 315 8 10 12 14 0
d 316 8 10 12 14 0
d 317 8 10 12 14 0
d 318 8 10 12 14 0
d 319 8 10 12 14 0
d 320 8 10 12 14 0
d 321 8 10 12 14 0
d 322 8 10 12 14 0
d 323 8 10 12 14 0
d 324 8 10 12 14 0
d 325 8 10 12 14 0
d 326 8 10 12 14 0
d 327 8 10 12 14 0
d 328 8 10 12 14 0
d 329 8 10 12 14 0
d 330 8 10 12 14 0
d 331 8 10 12 14 0
d 332 8 10 12 14 0
d 333 8 10 12 14 0
d 334 8 10 12 14 0
d 335 8 10 12 14 0
d 336 8 10 12 14 0
d 337 8 10 12 14 0
d 338 8 10 12 14 0
d 339 8 10 12 14 0
d 340 8 10 12 14 0
d 341 8 10 12 14 0
d 342 8 10 12 14 0
d 343 8 10 12 14 0
d 344 8 10 12 14 0
d 345 8 10 12 14 0
d 346 8 10 12 14 0
d 347 8 10 12 14 0
d 348 8 10 12 14 0
d 349 8 10 12 14 0
d 350 8 10 12 14 0
d 351 8 10 12 14 0
d 352 8 10 12 14 0
d 353 8 10 12 14 0
d 354 8 10 12 14 0
d 355 8 10 12 14 0
d 356 8 10 12 14 0
d 357 8 10 12 14 0
d 358 8 10 12 14 0
d 359 8 10 12 14 0
d 360 8 10 12 14 0
d 361 8 10 12 14 0
d 362 8 10 12 14 0
d 363 8 10 12 14 0
d 364 8 10 12 14 0
d 365 8 10 12 14 0
d 366 8 10 12 14 0
d 367 8 10 12 14 0
d 368 8 10 12 14 0
d 369 8 10 12 14 0
d 370 8 10 12 14 0
d 371 8 10 12 14 0
d 372 8 10 12 14 0
d 373 8 10 12 14 0
d 374 8 10 12 14 0
d 375 8 10 12 14 0
d 376 8 10 12 14 0
d 377 8 10 12 14 0
d 378 8 10 12 14 0
d 379 8 10 12 14 0
d 380 8 10 12 14 0
d 381 8 10 12 14 0
d 382 8 10 12 14 0
d 383 8 10 12 14 0
d 384 8 10 12 14 0
d 385 8 10 12 14 0
d 386 8 10 12 14 0
d 387 8 10 12 14 0
d 388 8 10 12 14 0
d 389 8 10 12 14 0
d 390 8 10 12 14 0
d 391 8 10 12 14 0
d 392 8 10 12 14 0
d 393 8 10 12 14 0
d 394 8 10 12 14 0
d 395 8 10 12 14 0
d 396 8 10 12 14 0
d 397 8 10 12 14 0
d 398 8 10 12 14 0
d 399 8 10 12 14 0
d 400 8 10 12 14 0
d 401 8 10 12 14 0
d 402 8 10 12 14 0
d 403 8 10 12 14 0
d 404 8 10 12 14 0
d 405 8 10 12 14 0
d 406 8 10 12 14 0
d 407 8 10 12 14 0
d 408 8 10 12 14 0
d 409 8 10 12 14 0
d 410 8 10 12 14 0
d 411 8 10 12 14 0
d 412 8 10 12 14 0
d 413 8 10 12 14 0
d 414 8 10 12 14 0
d 415 8 10 12 14 0
d 416 8 10 12 14 0
d 417 8 10 12 14 0
d 418 8 10 12 14 0
d 419 8 10 12 14 0
d 420 8 10 12 14 0
d 421 8 10 12 14 0
d 422 8 10 12 14 0
d 423 8 10 12 14 0
d 424 8 10 12 14 0
d 425 8 10 12 14 0
d 426 8 10 12 14 0
d 427 8 10 12 14 0
d 428 8 10 12 14 0
d 429 8 10 12 14 0
d 430 8 10 12 14 0
d 431 8 10 12 14 0
d 432 8 10 12 14 0
d 433 8 10 12 14 0
d 434 8 10 12 14 0
d 435 8 10 12 14 0
d 436 8 10 12 14 0
d 437 8 10 12 14 0
d 438 8 10 12 14 0
d 439 8 10 12 14 0
d 440 8 10 12 14 0
d 441 8 10 12 14 0
d 442 8 10 12 14 0
d 443 8 10 12 14 0
d 444 8 10 12 14 0
d 445 8 10 12 14 0
d 446 8 10 12 14 0
d 447 8 10 12 14 0
d 448 8 10 12 14 0
d 449 8 10 12 14 0
d 450 8 10 12 14 0
d 451 8 10 12 14 0
d 452 8 10 12 14 0
d 453 8 10 12 14 0
d 454 8 10 12 14 0
d 455 8 10 12 14 0
d 456 8 10 12 14 0
d 457 8 10 12 14 0
d 458 8 10 12 14 0
d 459 8 10 12 14 0
d 460 8 10 12 14 0
d 461 8 10 12 14 0
d 462 8 10 12 14 0
d 463 8 10 12 14 0
d 464 8 10 12 14 0
d 465 8 10 12 14 0
d 466 8 10 12 14 0
d 467 8 10 12 14 0
d 468 8 10 12 14 0
d 469 8 10 12 14 0
d 470 8 10 12 14 0
d 471 8 10 12 14 0
d 472 8 10 12 14 0
d 473 8 10 12 14 0
d 474 8 10 12 14 0
d 475 8 10 12 14 0
d 476 8 10 12 14 0
d 477 8 10 12 14 0
d 478 8 10 12 14 0
d 479 8 10 12 14 0
d 480 8 10 12 14 0
d 481 8 10 12 14 0
d 482 8 10 12 14 0
d 483 8 10 12 14 0
d 484 8 10 12 14 0
d 485 8 10 12 14 0
d 486 8 10 12 14 0
d 487 8 10 12 14 0
d 488 8 10 0
d 489 8 10 12 0
d 490 8 10 12 14 0
d 491 8 10 12 14 0
-3 1 0
-3 2 0
3 -1 -2 0
-5 3 0
-5 4 0
5 -3 -4 0
-7 5 0
-7 6 0
7 -5 -6 0
-9 7 0
-9 8 0
9 -7 -8 0
-11 9 0
-11 10 0
11 -9 -10 0
-13 11 0
-13 12 0
13 -11 -12 0
-15 13 0
-15 14 0
15 -13 -14 0
16 1 0
-16 -1 0
-17 16 0
-17 2 0
17 -16 -2 0
-18 17 0
-18 4 0
18 -17 -4 0
-19 18 0
-19 6 0
19 -18 -6 0
-20 19 0
-20 8 0
20 -19 -8 0
-21 20 0
-21 10 0
21 -20 -10 0
-22 21 0
-22 12 0
22 -21 -12 0
-23 22 0
-23 14 0
23 -22 -14 0
24 -15 0
24 -23 0
-24 15 23 0
25 2 0
-25 -2 0
-26 16 0
-26 25 0
26 -16 -25 0
-27 26 0
-27 4 0
27 -26 -4 0
-28 27 0
-28 6 0
28 -27 -6 0
-29 28 0
-29 8 0
29 -28 -8 0
-30 29 0
-30 10 0
30 -29 -10 0
-31 30 0
-31 12 0
31 -30 -12 0
-32 31 0
-32 14 0
32 -31 -14 0
33 -24 0
33 -32 0
-33 24 32 0
34 4 0
-34 -4 0
-35 26 0
-35 34 0
35 -26 -34 0
-36 35 0
-36 6 0
36 -35 -6 0
-37 36 0
-37 8 0
37 -36 -8 0
-38 37 0
-38 10 0
38 -37 -10 0
-39 38 0
-39 12 0
39 -38 -12 0
-40 39 0
-40 14 0
40 -39 -14 0
41 -33 0
41 -40 0
-41 33 40 0
42 6 0
-42 -6 0
-43 5 0
-43 42 0
43 -5 -42 0
-44 43 0
-44 8 0
44 -43 -8 0
-45 44 0
-45 10 0
45 -44 -10 0
-46 45 0
-46 12 0
46 -45 -12 0
-47 46 0
-47 14 0
47 -46 -14 0
48 -41 0
48 -47 0
-48 41 47 0
-49 27 0
-49 42 0
49 -27 -42 0
-50 49 0
-50 8 0
50 -49 -8 0
-51 50 0
-51 10 0
51 -50 -10 0
-52 51 0
-52 12 0
52 -51 -12 0
-53 52 0
-53 14 0
53 -52 -14 0
54 -48 0
54 -53 0
-54 48 53 0
-55 3 0
-55 34 0
55 -3 -34 0
-56 55 0
-56 42 0
56 -55 -42 0
-57 56 0
-57 8 0
57 -56 -8 0
-58 57 0
-58 10 0
58 -57 -10 0
-59 58 0
-59 12 0
59 -58 -12 0
-60 59 0
-60 14 0
60 -59 -14 0
61 -54 0
61 -60 0
-61 54 60 0
-62 35 0
-62 42 0
62 -35 -42 0
-63 62 0
-63 8 0
63 -62 -8 0
-64 63 0
-64 10 0
64 -63 -10 0
-65 64 0
-65 12 0
65 -64 -12 0
-66 65 0
-66 14 0
66 -65 -14 0
67 -61 0
67 -66 0
-67 61 66 0
-68 1 0
-68 25 0
68 -1 -25 0
-69 68 0
-69 4 0
69 -68 -4 0
-70 69 0
-70 6 0
70 -69 -6 0
71 8 0
-71 -8 0
-72 70 0
-72 71 0
72 -70 -71 0
-73 72 0
-73 10 0
73 -72 -10 0
-74 73 0
-74 12 0
74 -73 -12 0
-75 74 0
-75 14 0
75 -74 -14 0
76 -67 0
76 -75 0
-76 67 75 0
-77 55 0
-77 6 0
77 -55 -6 0
-78 77 0
-78 71 0
78 -77 -71 0
-79 78 0
-79 10 0
79 -78 -10 0
-80 79 0
-80 12 0
80 -79 -12 0
-81 80 0
-81 14 0
81 -80 -14 0
82 -76 0
82 -81 0
-82 76 81 0
-83 17 0
-83 34 0
83 -17 -34 0
-84 83 0
-84 6 0
84 -83 -6 0
-85 84 0
-85 71 0
85 -84 -71 0
-86 85 0
-86 10 0
86 -85 -10 0
-87 86 0
-87 12 0
87 -86 -12 0
-88 87 0
-88 14 0
88 -87 -14 0
89 -82 0
89 -88 0
-89 82 88 0
-90 43 0
-90 71 0
90 -43 -71 0
-91 90 0
-91 10 0
91 -90 -10 0
-92 91 0
-92 12 0
92 -91 -12 0
-93 92 0
-93 14 0
93 -92 -14 0
94 -89 0
94 -93 0
-94 89 93 0
-95 56 0
-95 71 0
95 -56 -71 0
-96 95 0
-96 10 0
96 -95 -10 0
-97 96 0
-97 12 0
97 -96 -12 0
-98 97 0
-98 14 0
98 -97 -14 0
99 -94 0
99 -98 0
-99 94 98 0
-100 83 0
-100 42 0
100 -83 -42 0
-101 100 0
-101 71 0
101 -100 -71 0
-102 101 0
-102 10 0
102 -101 -10 0
-103 102 0
-103 12 0
103 -102 -12 0
-104 103 0
-104 14 0
104 -103 -14 0
105 -99 0
105 -104 0
-105 99 104 0
-106 62 0
-106 71 0
106 -62 -71 0
-107 106 0
-107 10 0
107 -106 -10 0
-108 107 0
-108 12 0
108 -107 -12 0
-109 108 0
-109 14 0
109 -108 -14 0
110 -105 0
110 -109 0
-110 105 109 0
111 10 0
-111 -10 0
-112 9 0
-112 111 0
112 -9 -111 0
-113 112 0
-113 12 0
113 -112 -12 0
-114 113 0
-114 14 0
114 -113 -14 0
115 -110 0
115 -114 0
-115 110 114 0
-116 29 0
-116 111 0
116 -29 -111 0
-117 116 0
-117 12 0
117 -116 -12 0
-118 117 0
-118 14 0
118 -117 -14 0
119 -115 0
119 -118 0
-119 115 118 0
-120 84 0
-120 8 0
120 -84 -8 0
-121 120 0
-121 111 0
121 -120 -111 0
-122 121 0
-122 12 0
122 -121 -12 0
-123 122 0
-123 14 0
123 -122 -14 0
124 -119 0
124 -123 0
-124 119 123 0
-125 18 0
-125 42 0
125 -18 -42 0
-126 125 0
-126 8 0
126 -125 -8 0
-127 126 0
-127 111 0
127 -126 -111 0
-128 127 0
-128 12 0
128 -127 -12 0
-129 128 0
-129 14 0
129 -128 -14 0
130 -124 0
130 -129 0
-130 124 129 0
-131 57 0
-131 111 0
131 -57 -111 0
-132 131 0
-132 12 0
132 -131 -12 0
-133 132 0
-133 14 0
133 -132 -14 0
134 -130 0
134 -133 0
-134 130 133 0
-135 68 0
-135 34 0
135 -68 -34 0
-136 135 0
-136 42 0
136 -135 -42 0
-137 136 0
-137 8 0
137 -136 -8 0
-138 137 0
-138 111 0
138 -137 -111 0
-139 138 0
-139 12 0
139 -138 -12 0
-140 139 0
-140 14 0
140 -139 -14 0
141 -134 0
141 -140 0
-141 134 140 0
-142 7 0
-142 71 0
142 -7 -71 0
-143 142 0
-143 111 0
143 -142 -111 0
-144 143 0
-144 12 0
144 -143 -12 0
-145 144 0
-145 14 0
145 -144 -14 0
146 -141 0
146 -145 0
-146 141 145 0
-147 78 0
-147 111 0
147 -78 -111 0
-148 147 0
-148 12 0
148 -147 -12 0
-149 148 0
-149 14 0
149 -148 -14 0
150 -146 0
150 -149 0
-150 146 149 0
-151 90 0
-151 111 0
151 -90 -111 0
-152 151 0
-152 12 0
152 -151 -12 0
-153 152 0
-153 14 0
153 -152 -14 0
154 -150 0
154 -153 0
-154 150 153 0
-155 69 0
-155 42 0
155 -69 -42 0
-156 155 0
-156 71 0
156 -155 -71 0
-157 156 0
-157 111 0
157 -156 -111 0
-158 157 0
-158 12 0
158 -157 -12 0
-159 158 0
-159 14 0
159 -158 -14 0
160 -154 0
160 -159 0
-160 154 159 0
-161 101 0
-161 111 0
161 -101 -111 0
-162 161 0
-162 12 0
162 -161 -12 0
-163 162 0
-163 14 0
163 -162 -14 0
164 -160 0
164 -163 0
-164 160 163 0
-165 106 0
-165 111 0
165 -106 -111 0
-166 165 0
-166 12 0
166 -165 -12 0
-167 166 0
-167 14 0
167 -166 -14 0
168 -164 0
168 -167 0
-168 164 167 0
169 12 0
-169 -12 0
-170 21 0
-170 169 0
170 -21 -169 0
-171 170 0
-171 14 0
171 -170 -14 0
172 -168 0
172 -171 0
-172 168 171 0
-173 30 0
-173 169 0
173 -30 -169 0
-174 173 0
-174 14 0
174 -173 -14 0
175 -172 0
175 -174 0
-175 172 174 0
-176 77 0
-176 8 0
176 -77 -8 0
-177 176 0
-177 10 0
177 -176 -10 0
-178 177 0
-178 169 0
178 -177 -169 0
-179 178 0
-179 14 0
179 -178 -14 0
180 -175 0
180 -179 0
-180 175 179 0
-181 120 0
-181 10 0
181 -120 -10 0
-182 181 0
-182 169 0
182 -181 -169 0
-183 182 0
-183 14 0
183 -182 -14 0
184 -180 0
184 -183 0
-184 180 183 0
-185 155 0
-185 8 0
185 -155 -8 0
-186 185 0
-186 10 0
186 -185 -10 0
-187 186 0
-187 169 0
187 -186 -169 0
-188 187 0
-188 14 0
188 -187 -14 0
189 -184 0
189 -188 0
-189 184 188 0
-190 51 0
-190 169 0
190 -51 -169 0
-191 190 0
-191 14 0
191 -190 -14 0
192 -189 0
192 -191 0
-192 189 191 0
-193 100 0
-193 8 0
193 -100 -8 0
-194 193 0
-194 10 0
194 -193 -10 0
-195 194 0
-195 169 0
195 -194 -169 0
-196 195 0
-196 14 0
196 -195 -14 0
197 -192 0
197 -196 0
-197 192 196 0
-198 142 0
-198 10 0
198 -142 -10 0
-199 198 0
-199 169 0
199 -198 -169 0
-200 199 0
-200 14 0
200 -199 -14 0
201 -197 0
201 -200 0
-201 197 200 0
-202 73 0
-202 169 0
202 -73 -169 0
-203 202 0
-203 14 0
203 -202 -14 0
204 -201 0
204 -203 0
-204 201 203 0
-205 79 0
-205 169 0
205 -79 -169 0
-206 205 0
-206 14 0
206 -205 -14 0
207 -204 0
207 -206 0
-207 204 206 0
-208 135 0
-208 6 0
208 -135 -6 0
-209 208 0
-209 71 0
209 -208 -71 0
-210 209 0
-210 10 0
210 -209 -10 0
-211 210 0
-211 169 0
211 -210 -169 0
-212 211 0
-212 14 0
212 -211 -14 0
213 -207 0
213 -212 0
-213 207 212 0
-214 91 0
-214 169 0
214 -91 -169 0
-215 214 0
-215 14 0
215 -214 -14 0
216 -213 0
216 -215 0
-216 213 215 0
-217 156 0
-217 10 0
217 -156 -10 0
-218 217 0
-218 169 0
218 -217 -169 0
-219 218 0
-219 14 0
219 -218 -14 0
220 -216 0
220 -219 0
-220 216 219 0
-221 136 0
-221 71 0
221 -136 -71 0
-222 221 0
-222 10 0
222 -221 -10 0
-223 222 0
-223 169 0
223 -222 -169 0
-224 223 0
-224 14 0
224 -223 -14 0
225 -220 0
225 -224 0
-225 220 224 0
-226 107 0
-226 169 0
226 -107 -169 0
-227 226 0
-227 14 0
227 -226 -14 0
228 -225 0
228 -227 0
-228 225 227 0
-229 112 0
-229 169 0
229 -112 -169 0
-230 229 0
-230 14 0
230 -229 -14 0
231 -228 0
231 -230 0
-231 228 230 0
-232 176 0
-232 111 0
232 -176 -111 0
-233 232 0
-233 169 0
233 -232 -169 0
-234 233 0
-234 14 0
234 -233 -14 0
235 -231 0
235 -234 0
-235 231 234 0
-236 121 0
-236 169 0
236 -121 -169 0
-237 236 0
-237 14 0
237 -236 -14 0
238 -235 0
238 -237 0
-238 235 237 0
-239 208 0
-239 8 0
239 -208 -8 0
-240 239 0
-240 111 0
240 -239 -111 0
-241 240 0
-241 169 0
241 -240 -169 0
-242 241 0
-242 14 0
242 -241 -14 0
243 -238 0
243 -242 0
-243 238 242 0
-244 37 0
-244 111 0
244 -37 -111 0
-245 244 0
-245 169 0
245 -244 -169 0
-246 245 0
-246 14 0
246 -245 -14 0
247 -243 0
247 -246 0
-247 243 246 0
-248 127 0
-248 169 0
248 -127 -169 0
-249 248 0
-249 14 0
249 -248 -14 0
250 -247 0
250 -249 0
-250 247 249 0
-251 50 0
-251 111 0
251 -50 -111 0
-252 251 0
-252 169 0
252 -251 -169 0
-253 252 0
-253 14 0
253 -252 -14 0
254 -250 0
254 -253 0
-254 250 253 0
-255 131 0
-255 169 0
255 -131 -169 0
-256 255 0
-256 14 0
256 -255 -14 0
257 -254 0
257 -256 0
-257 254 256 0
-258 138 0
-258 169 0
258 -138 -169 0
-259 258 0
-259 14 0
259 -258 -14 0
260 -257 0
260 -259 0
-260 257 259 0
-261 63 0
-261 111 0
261 -63 -111 0
-262 261 0
-262 169 0
262 -261 -169 0
-263 262 0
-263 14 0
263 -262 -14 0
264 -260 0
264 -263 0
-264 260 263 0
-265 143 0
-265 169 0
265 -143 -169 0
-266 265 0
-266 14 0
266 -265 -14 0
267 -264 0
267 -266 0
-267 264 266 0
-268 19 0
-268 71 0
268 -19 -71 0
-269 268 0
-269 111 0
269 -268 -111 0
-270 269 0
-270 169 0
270 -269 -169 0
-271 270 0
-271 14 0
271 -270 -14 0
272 -267 0
272 -271 0
-272 267 271 0
-273 28 0
-273 71 0
273 -28 -71 0
-274 273 0
-274 111 0
274 -273 -111 0
-275 274 0
-275 169 0
275 -274 -169 0
-276 275 0
-276 14 0
276 -275 -14 0
277 -272 0
277 -276 0
-277 272 276 0
-278 147 0
-278 169 0
278 -147 -169 0
-279 278 0
-279 14 0
279 -278 -14 0
280 -277 0
280 -279 0
-280 277 279 0
-281 209 0
-281 111 0
281 -209 -111 0
-282 281 0
-282 169 0
282 -281 -169 0
-283 282 0
-283 14 0
283 -282 -14 0
284 -280 0
284 -283 0
-284 280 283 0
-285 36 0
-285 71 0
285 -36 -71 0
-286 285 0
-286 111 0
286 -285 -111 0
-287 286 0
-287 169 0
287 -286 -169 0
-288 287 0
-288 14 0
288 -287 -14 0
289 -284 0
289 -288 0
-289 284 288 0
-290 151 0
-290 169 0
290 -151 -169 0
-291 290 0
-291 14 0
291 -290 -14 0
292 -289 0
292 -291 0
-292 289 291 0
-293 161 0
-293 169 0
293 -161 -169 0
-294 293 0
-294 14 0
294 -293 -14 0
295 -292 0
295 -294 0
-295 292 294 0
-296 221 0
-296 111 0
296 -221 -111 0
-297 296 0
-297 169 0
297 -296 -169 0
-298 297 0
-298 14 0
298 -297 -14 0
299 -295 0
299 -298 0
-299 295 298 0
300 14 0
-300 -14 0
-301 31 0
-301 300 0
301 -31 -300 0
302 -299 0
302 -301 0
-302 299 301 0
-303 181 0
-303 12 0
303 -181 -12 0
-304 303 0
-304 300 0
304 -303 -300 0
305 -302 0
305 -304 0
-305 302 304 0
-306 46 0
-306 300 0
306 -46 -300 0
307 -305 0
307 -306 0
-307 305 306 0
-308 186 0
-308 12 0
308 -186 -12 0
-309 308 0
-309 300 0
309 -308 -300 0
310 -307 0
310 -309 0
-310 307 309 0
-311 52 0
-311 300 0
311 -52 -300 0
312 -310 0
312 -311 0
-312 310 311 0
-313 59 0
-313 300 0
313 -59 -300 0
314 -312 0
314 -313 0
-314 312 313 0
-315 194 0
-315 12 0
315 -194 -12 0
-316 315 0
-316 300 0
316 -315 -300 0
317 -314 0
317 -316 0
-317 314 316 0
-318 137 0
-318 10 0
318 -137 -10 0
-319 318 0
-319 12 0
319 -318 -12 0
-320 319 0
-320 300 0
320 -319 -300 0
321 -317 0
321 -320 0
-321 317 320 0
-322 65 0
-322 300 0
322 -65 -300 0
323 -321 0
323 -322 0
-323 321 322 0
-324 198 0
-324 12 0
324 -198 -12 0
-325 324 0
-325 300 0
325 -324 -300 0
326 -323 0
326 -325 0
-326 323 325 0
-327 268 0
-327 10 0
327 -268 -10 0
-328 327 0
-328 12 0
328 -327 -12 0
-329 328 0
-329 300 0
329 -328 -300 0
330 -326 0
330 -329 0
-330 326 329 0
-331 80 0
-331 300 0
331 -80 -300 0
332 -330 0
332 -331 0
-332 330 331 0
-333 92 0
-333 300 0
333 -92 -300 0
334 -332 0
334 -333 0
-334 332 333 0
-335 49 0
-335 71 0
335 -49 -71 0
-336 335 0
-336 10 0
336 -335 -10 0
-337 336 0
-337 12 0
337 -336 -12 0
-338 337 0
-338 300 0
338 -337 -300 0
339 -334 0
339 -338 0
-339 334 338 0
-340 97 0
-340 300 0
340 -97 -300 0
341 -339 0
341 -340 0
-341 339 340 0
-342 103 0
-342 300 0
342 -103 -300 0
343 -341 0
343 -342 0
-343 341 342 0
-344 108 0
-344 300 0
344 -108 -300 0
345 -343 0
345 -344 0
-345 343 344 0
-346 113 0
-346 300 0
346 -113 -300 0
347 -345 0
347 -346 0
-347 345 346 0
-348 20 0
-348 111 0
348 -20 -111 0
-349 348 0
-349 12 0
349 -348 -12 0
-350 349 0
-350 300 0
350 -349 -300 0
351 -347 0
351 -350 0
-351 347 350 0
-352 117 0
-352 300 0
352 -117 -300 0
353 -351 0
353 -352 0
-353 351 352 0
-354 122 0
-354 300 0
354 -122 -300 0
355 -353 0
355 -354 0
-355 353 354 0
-356 240 0
-356 12 0
356 -240 -12 0
-357 356 0
-357 300 0
357 -356 -300 0
358 -355 0
358 -357 0
-358 355 357 0
-359 244 0
-359 12 0
359 -244 -12 0
-360 359 0
-360 300 0
360 -359 -300 0
361 -358 0
361 -360 0
-361 358 360 0
-362 128 0
-362 300 0
362 -128 -300 0
363 -361 0
363 -362 0
-363 361 362 0
-364 185 0
-364 111 0
364 -185 -111 0
-365 364 0
-365 12 0
365 -364 -12 0
-366 365 0
-366 300 0
366 -365 -300 0
367 -363 0
367 -366 0
-367 363 366 0
-368 251 0
-368 12 0
368 -251 -12 0
-369 368 0
-369 300 0
369 -368 -300 0
370 -367 0
370 -369 0
-370 367 369 0
-371 132 0
-371 300 0
371 -132 -300 0
372 -370 0
372 -371 0
-372 370 371 0
-373 139 0
-373 300 0
373 -139 -300 0
374 -372 0
374 -373 0
-374 372 373 0
-375 144 0
-375 300 0
375 -144 -300 0
376 -374 0
376 -375 0
-376 374 375 0
-377 286 0
-377 12 0
377 -286 -12 0
-378 377 0
-378 300 0
378 -377 -300 0
379 -376 0
379 -378 0
-379 376 378 0
-380 158 0
-380 300 0
380 -158 -300 0
381 -379 0
381 -380 0
-381 379 380 0
-382 162 0
-382 300 0
382 -162 -300 0
383 -381 0
383 -382 0
-383 381 382 0
-384 296 0
-384 12 0
384 -296 -12 0
-385 384 0
-385 300 0
385 -384 -300 0
386 -383 0
386 -385 0
-386 383 385 0
-387 166 0
-387 300 0
387 -166 -300 0
388 -386 0
388 -387 0
-388 386 387 0
-389 11 0
-389 169 0
389 -11 -169 0
-390 389 0
-390 300 0
390 -389 -300 0
391 -388 0
391 -390 0
-391 388 390 0
-392 178 0
-392 300 0
392 -178 -300 0
393 -391 0
393 -392 0
-393 391 392 0
-394 182 0
-394 300 0
394 -182 -300 0
395 -393 0
395 -394 0
-395 393 394 0
-396 38 0
-396 169 0
396 -38 -169 0
-397 396 0
-397 300 0
397 -396 -300 0
398 -395 0
398 -397 0
-398 395 397 0
-399 45 0
-399 169 0
399 -45 -169 0
-400 399 0
-400 300 0
400 -399 -300 0
401 -398 0
401 -400 0
-401 398 400 0
-402 126 0
-402 10 0
402 -126 -10 0
-403 402 0
-403 169 0
403 -402 -169 0
-404 403 0
-404 300 0
404 -403 -300 0
405 -401 0
405 -404 0
-405 401 404 0
-406 187 0
-406 300 0
406 -187 -300 0
407 -405 0
407 -406 0
-407 405 406 0
-408 190 0
-408 300 0
408 -190 -300 0
409 -407 0
409 -408 0
-409 407 408 0
-410 195 0
-410 300 0
410 -195 -300 0
411 -409 0
411 -410 0
-411 409 410 0
-412 199 0
-412 300 0
412 -199 -300 0
413 -411 0
413 -412 0
-413 411 412 0
-414 202 0
-414 300 0
414 -202 -300 0
415 -413 0
415 -414 0
-415 413 414 0
-416 273 0
-416 10 0
416 -273 -10 0
-417 416 0
-417 169 0
417 -416 -169 0
-418 417 0
-418 300 0
418 -417 -300 0
419 -415 0
419 -418 0
-419 415 418 0
-420 86 0
-420 169 0
420 -86 -169 0
-421 420 0
-421 300 0
421 -420 -300 0
422 -419 0
422 -421 0
-422 419 421 0
-423 211 0
-423 300 0
423 -211 -300 0
424 -422 0
424 -423 0
-424 422 423 0
-425 285 0
-425 10 0
425 -285 -10 0
-426 425 0
-426 169 0
426 -425 -169 0
-427 426 0
-427 300 0
427 -426 -300 0
428 -424 0
428 -427 0
-428 424 427 0
-429 214 0
-429 300 0
429 -214 -300 0
430 -428 0
430 -429 0
-430 428 429 0
-431 125 0
-431 71 0
431 -125 -71 0
-432 431 0
-432 10 0
432 -431 -10 0
-433 432 0
-433 169 0
433 -432 -169 0
-434 433 0
-434 300 0
434 -433 -300 0
435 -430 0
435 -434 0
-435 430 434 0
-436 96 0
-436 169 0
436 -96 -169 0
-437 436 0
-437 300 0
437 -436 -300 0
438 -435 0
438 -437 0
-438 435 437 0
-439 226 0
-439 300 0
439 -226 -300 0
440 -438 0
440 -439 0
-440 438 439 0
-441 229 0
-441 300 0
441 -229 -300 0
442 -440 0
442 -441 0
-442 440 441 0
-443 348 0
-443 169 0
443 -348 -169 0
-444 443 0
-444 300 0
444 -443 -300 0
445 -442 0
445 -444 0
-445 442 444 0
-446 116 0
-446 169 0
446 -116 -169 0
-447 446 0
-447 300 0
447 -446 -300 0
448 -445 0
448 -447 0
-448 445 447 0
-449 236 0
-449 300 0
449 -236 -300 0
450 -448 0
450 -449 0
-450 448 449 0
-451 44 0
-451 111 0
451 -44 -111 0
-452 451 0
-452 169 0
452 -451 -169 0
-453 452 0
-453 300 0
453 -452 -300 0
454 -450 0
454 -453 0
-454 450 453 0
-455 252 0
-455 300 0
455 -252 -300 0
456 -454 0
456 -455 0
-456 454 455 0
-457 270 0
-457 300 0
457 -270 -300 0
458 -456 0
458 -457 0
-458 456 457 0
-459 72 0
-459 111 0
459 -72 -111 0
-460 459 0
-460 169 0
460 -459 -169 0
-461 460 0
-461 300 0
461 -460 -300 0
462 -458 0
462 -461 0
-462 458 461 0
-463 282 0
-463 300 0
463 -282 -300 0
464 -462 0
464 -463 0
-464 462 463 0
-465 287 0
-465 300 0
465 -287 -300 0
466 -464 0
466 -465 0
-466 464 465 0
-467 290 0
-467 300 0
467 -290 -300 0
468 -466 0
468 -467 0
-468 466 467 0
-469 431 0
-469 111 0
469 -431 -111 0
-470 469 0
-470 169 0
470 -469 -169 0
-471 470 0
-471 300 0
471 -470 -300 0
472 -468 0
472 -471 0
-472 468 471 0
-473 335 0
-473 111 0
473 -335 -111 0
-474 473 0
-474 169 0
474 -473 -169 0
-475 474 0
-475 300 0
475 -474 -300 0
476 -472 0
476 -475 0
-476 472 475 0
-477 95 0
-477 111 0
477 -95 -111 0
-478 477 0
-478 169 0
478 -477 -169 0
-479 478 0
-479 300 0
479 -478 -300 0
480 -476 0
480 -479 0
-480 476 479 0
-481 293 0
-481 300 0
481 -293 -300 0
482 -480 0
482 -481 0
-482 480 481 0
-483 297 0
-483 300 0
483 -297 -300 0
484 -482 0
484 -483 0
-484 482 483 0
-485 165 0
-485 169 0
485 -165 -169 0
-486 485 0
-486 300 0
486 -485 -300 0
487 -484 0
487 -486 0
-487 484 486 0
488 -8 10 0
488 8 -10 0
-488 -8 -10 0
-488 8 10 0
489 -488 12 0
489 488 -12 0
-489 -488 -12 0
-489 488 12 0
490 -489 14 0
490 489 -14 0
-490 -489 -14 0
-490 489 14 0
491 -487 -490 0
491 487 490 0
-491 -487 490 0
-491 487 -490 0
491 0
